\* How_to_visit_Paris_rankings3 *\
Maximize
Objective_Function: AC + AT + BS + CA + CN + CP + JT + ML + MO + PC + SC + TE
 + TM
Subject To
Constraint_of_the_price: AC + 9.5 AT + 8 BS + 10 CA + 5 CN + 10 CP + JT
 + 12 ML + 11 MO + PC + 8.5 SC + 15.5 TE + 15 TM <= 65
Binaries
AC
AT
BS
CA
CN
CP
JT
ML
MO
PC
SC
TE
TM
End
